
Gurobi 9.0.3 (win64, Java) logging started Tue Feb 16 23:11:37 2021

Academic license - for non-commercial use only
Gurobi Optimizer version 9.0.3 build v9.0.3rc0 (win64)
Optimize a model with 50 rows, 13 columns and 50 nonzeros
Model fingerprint: 0x41f63b8b
Coefficient statistics:
  Matrix range     [1e+00, 1e+00]
  Objective range  [8e+01, 2e+02]
  Bounds range     [1e+00, 1e+00]
  RHS range        [1e+00, 1e+00]
Presolve removed 50 rows and 13 columns
Presolve time: 0.00s
Presolve: All rows and columns removed
Iteration    Objective       Primal Inf.    Dual Inf.      Time
       0    1.5446000e+03   0.000000e+00   0.000000e+00      0s

Solved in 0 iterations and 0.00 seconds
Optimal objective  1.544600000e+03
Gurobi Optimizer version 9.0.3 build v9.0.3rc0 (win64)
Optimize a model with 50 rows, 68 columns and 184 nonzeros
Coefficient statistics:
  Matrix range     [1e+00, 1e+00]
  Objective range  [8e+01, 2e+02]
  Bounds range     [1e+00, 1e+00]
  RHS range        [1e+00, 1e+00]
Iteration    Objective       Primal Inf.    Dual Inf.      Time
       0   -9.0823000e+03   4.380000e+02   0.000000e+00      0s
      13    1.5446000e+03   0.000000e+00   0.000000e+00      0s

Solved in 13 iterations and 0.00 seconds
Optimal objective  1.544600000e+03
Gurobi Optimizer version 9.0.3 build v9.0.3rc0 (win64)
Optimize a model with 50 rows, 132 columns and 342 nonzeros
Coefficient statistics:
  Matrix range     [1e+00, 1e+00]
  Objective range  [6e+01, 2e+02]
  Bounds range     [1e+00, 1e+00]
  RHS range        [1e+00, 1e+00]
Iteration    Objective       Primal Inf.    Dual Inf.      Time
       0   -1.0017900e+04   4.930000e+02   0.000000e+00      0s
      30    1.5446000e+03   0.000000e+00   0.000000e+00      0s

Solved in 30 iterations and 0.00 seconds
Optimal objective  1.544600000e+03
Gurobi Optimizer version 9.0.3 build v9.0.3rc0 (win64)
Optimize a model with 50 rows, 187 columns and 481 nonzeros
Coefficient statistics:
  Matrix range     [1e+00, 1e+00]
  Objective range  [6e+01, 2e+02]
  Bounds range     [1e+00, 1e+00]
  RHS range        [1e+00, 1e+00]
Iteration    Objective       Primal Inf.    Dual Inf.      Time
       0   -4.7558000e+03   5.100000e+02   0.000000e+00      0s
      26    1.5446000e+03   0.000000e+00   0.000000e+00      0s

Solved in 26 iterations and 0.00 seconds
Optimal objective  1.544600000e+03
Gurobi Optimizer version 9.0.3 build v9.0.3rc0 (win64)
Optimize a model with 50 rows, 228 columns and 589 nonzeros
Coefficient statistics:
  Matrix range     [1e+00, 1e+00]
  Objective range  [6e+01, 2e+02]
  Bounds range     [1e+00, 1e+00]
  RHS range        [1e+00, 1e+00]
Iteration    Objective       Primal Inf.    Dual Inf.      Time
       0   -2.3805000e+03   4.030000e+02   0.000000e+00      0s
      39    1.5446000e+03   0.000000e+00   0.000000e+00      0s

Solved in 39 iterations and 0.00 seconds
Optimal objective  1.544600000e+03
Gurobi Optimizer version 9.0.3 build v9.0.3rc0 (win64)
Optimize a model with 50 rows, 287 columns and 742 nonzeros
Coefficient statistics:
  Matrix range     [1e+00, 1e+00]
  Objective range  [6e+01, 2e+02]
  Bounds range     [1e+00, 1e+00]
  RHS range        [1e+00, 1e+00]
Iteration    Objective       Primal Inf.    Dual Inf.      Time
       0   -3.5073500e+03   5.180000e+02   0.000000e+00      0s
      60    1.5011667e+03   0.000000e+00   0.000000e+00      0s

Solved in 60 iterations and 0.00 seconds
Optimal objective  1.501166667e+03
Gurobi Optimizer version 9.0.3 build v9.0.3rc0 (win64)
Optimize a model with 50 rows, 330 columns and 858 nonzeros
Coefficient statistics:
  Matrix range     [1e+00, 1e+00]
  Objective range  [6e+01, 2e+02]
  Bounds range     [1e+00, 1e+00]
  RHS range        [1e+00, 1e+00]
Iteration    Objective       Primal Inf.    Dual Inf.      Time
       0   -9.1150000e+02   5.090000e+02   0.000000e+00      0s
      51    1.4105500e+03   0.000000e+00   0.000000e+00      0s

Solved in 51 iterations and 0.00 seconds
Optimal objective  1.410550000e+03
Gurobi Optimizer version 9.0.3 build v9.0.3rc0 (win64)
Optimize a model with 51 rows, 362 columns and 1023 nonzeros
Coefficient statistics:
  Matrix range     [1e+00, 1e+00]
  Objective range  [6e+01, 2e+02]
  Bounds range     [1e+00, 1e+00]
  RHS range        [1e+00, 2e+00]
Iteration    Objective       Primal Inf.    Dual Inf.      Time
       0   -3.1194167e+02   1.630952e+02   0.000000e+00      0s
      30    1.3881025e+03   0.000000e+00   0.000000e+00      0s

Solved in 30 iterations and 0.00 seconds
Optimal objective  1.388102452e+03
Gurobi Optimizer version 9.0.3 build v9.0.3rc0 (win64)
Optimize a model with 53 rows, 403 columns and 1435 nonzeros
Coefficient statistics:
  Matrix range     [1e+00, 2e+00]
  Objective range  [6e+01, 2e+02]
  Bounds range     [1e+00, 1e+00]
  RHS range        [1e+00, 3e+00]
Iteration    Objective       Primal Inf.    Dual Inf.      Time
       0   -5.8211693e+02   4.260789e+02   0.000000e+00      0s
      29    1.3825060e+03   0.000000e+00   0.000000e+00      0s

Solved in 29 iterations and 0.00 seconds
Optimal objective  1.382506000e+03
Gurobi Optimizer version 9.0.3 build v9.0.3rc0 (win64)
Optimize a model with 53 rows, 431 columns and 1540 nonzeros
Coefficient statistics:
  Matrix range     [1e+00, 2e+00]
  Objective range  [6e+01, 2e+02]
  Bounds range     [1e+00, 1e+00]
  RHS range        [1e+00, 3e+00]
Iteration    Objective       Primal Inf.    Dual Inf.      Time
       0    5.7704733e+02   1.847944e+02   0.000000e+00      0s
      24    1.3338757e+03   0.000000e+00   0.000000e+00      0s

Solved in 24 iterations and 0.00 seconds
Optimal objective  1.333875696e+03
Gurobi Optimizer version 9.0.3 build v9.0.3rc0 (win64)
Optimize a model with 54 rows, 458 columns and 1751 nonzeros
Coefficient statistics:
  Matrix range     [1e+00, 2e+00]
  Objective range  [6e+01, 2e+02]
  Bounds range     [1e+00, 1e+00]
  RHS range        [1e+00, 3e+00]
Iteration    Objective       Primal Inf.    Dual Inf.      Time
       0    7.4009537e+02   1.241842e+02   0.000000e+00      0s
      41    1.3097094e+03   0.000000e+00   0.000000e+00      0s

Solved in 41 iterations and 0.00 seconds
Optimal objective  1.309709394e+03
Gurobi Optimizer version 9.0.3 build v9.0.3rc0 (win64)
Optimize a model with 55 rows, 488 columns and 2020 nonzeros
Coefficient statistics:
  Matrix range     [1e+00, 2e+00]
  Objective range  [6e+01, 2e+02]
  Bounds range     [1e+00, 1e+00]
  RHS range        [1e+00, 3e+00]
Iteration    Objective       Primal Inf.    Dual Inf.      Time
       0    5.2326010e+02   4.041667e+02   0.000000e+00      0s
      39    1.2970878e+03   0.000000e+00   0.000000e+00      0s

Solved in 39 iterations and 0.00 seconds
Optimal objective  1.297087821e+03
Gurobi Optimizer version 9.0.3 build v9.0.3rc0 (win64)
Optimize a model with 55 rows, 514 columns and 2163 nonzeros
Coefficient statistics:
  Matrix range     [1e+00, 2e+00]
  Objective range  [6e+01, 2e+02]
  Bounds range     [1e+00, 1e+00]
  RHS range        [1e+00, 3e+00]
Iteration    Objective       Primal Inf.    Dual Inf.      Time
       0    7.9384704e+02   3.011685e+02   0.000000e+00      0s
      34    1.2751472e+03   0.000000e+00   0.000000e+00      0s

Solved in 34 iterations and 0.00 seconds
Optimal objective  1.275147222e+03
Gurobi Optimizer version 9.0.3 build v9.0.3rc0 (win64)
Optimize a model with 56 rows, 536 columns and 2546 nonzeros
Coefficient statistics:
  Matrix range     [1e+00, 2e+00]
  Objective range  [6e+01, 2e+02]
  Bounds range     [1e+00, 1e+00]
  RHS range        [1e+00, 6e+00]
Iteration    Objective       Primal Inf.    Dual Inf.      Time
       0    9.6504722e+02   2.068333e+02   0.000000e+00      0s
      25    1.2625437e+03   0.000000e+00   0.000000e+00      0s

Solved in 25 iterations and 0.00 seconds
Optimal objective  1.262543718e+03
Gurobi Optimizer version 9.0.3 build v9.0.3rc0 (win64)
Optimize a model with 57 rows, 556 columns and 3013 nonzeros
Coefficient statistics:
  Matrix range     [1e+00, 2e+00]
  Objective range  [6e+01, 2e+02]
  Bounds range     [1e+00, 1e+00]
  RHS range        [1e+00, 8e+00]
Iteration    Objective       Primal Inf.    Dual Inf.      Time
       0    1.0583154e+03   1.089149e+02   0.000000e+00      0s
      31    1.2551057e+03   0.000000e+00   0.000000e+00      0s

Solved in 31 iterations and 0.00 seconds
Optimal objective  1.255105654e+03
Gurobi Optimizer version 9.0.3 build v9.0.3rc0 (win64)
Optimize a model with 58 rows, 581 columns and 3740 nonzeros
Coefficient statistics:
  Matrix range     [1e+00, 2e+00]
  Objective range  [6e+01, 2e+02]
  Bounds range     [1e+00, 1e+00]
  RHS range        [1e+00, 1e+01]
Iteration    Objective       Primal Inf.    Dual Inf.      Time
       0    1.0284424e+03   1.047942e+02   0.000000e+00      0s
      30    1.2486753e+03   0.000000e+00   0.000000e+00      0s

Solved in 30 iterations and 0.00 seconds
Optimal objective  1.248675298e+03
Gurobi Optimizer version 9.0.3 build v9.0.3rc0 (win64)
Optimize a model with 59 rows, 596 columns and 3998 nonzeros
Coefficient statistics:
  Matrix range     [1e+00, 2e+00]
  Objective range  [6e+01, 2e+02]
  Bounds range     [1e+00, 1e+00]
  RHS range        [1e+00, 1e+01]
Iteration    Objective       Primal Inf.    Dual Inf.      Time
       0    1.1049458e+03   5.833333e+01   0.000000e+00      0s
      44    1.2535479e+03   0.000000e+00   0.000000e+00      0s

Solved in 44 iterations and 0.00 seconds
Optimal objective  1.253547857e+03
Gurobi Optimizer version 9.0.3 build v9.0.3rc0 (win64)
Optimize a model with 60 rows, 619 columns and 4581 nonzeros
Coefficient statistics:
  Matrix range     [1e+00, 2e+00]
  Objective range  [6e+01, 2e+02]
  Bounds range     [1e+00, 1e+00]
  RHS range        [1e+00, 1e+01]
Iteration    Objective       Primal Inf.    Dual Inf.      Time
       0    1.0366192e+03   1.532546e+02   0.000000e+00      0s
      42    1.2494719e+03   0.000000e+00   0.000000e+00      0s

Solved in 42 iterations and 0.00 seconds
Optimal objective  1.249471924e+03
Gurobi Optimizer version 9.0.3 build v9.0.3rc0 (win64)
Optimize a model with 61 rows, 638 columns and 5377 nonzeros
Coefficient statistics:
  Matrix range     [1e+00, 2e+00]
  Objective range  [6e+01, 2e+02]
  Bounds range     [1e+00, 1e+00]
  RHS range        [1e+00, 1e+01]
Iteration    Objective       Primal Inf.    Dual Inf.      Time
       0    1.1430473e+03   5.417315e+01   0.000000e+00      0s
      36    1.2391532e+03   0.000000e+00   0.000000e+00      0s

Solved in 36 iterations and 0.00 seconds
Optimal objective  1.239153175e+03
Gurobi Optimizer version 9.0.3 build v9.0.3rc0 (win64)
Optimize a model with 61 rows, 659 columns and 5567 nonzeros
Coefficient statistics:
  Matrix range     [1e+00, 2e+00]
  Objective range  [6e+01, 2e+02]
  Bounds range     [1e+00, 1e+00]
  RHS range        [1e+00, 1e+01]
Iteration    Objective       Primal Inf.    Dual Inf.      Time
       0    1.1369714e+03   1.418095e+02   0.000000e+00      0s
      56    1.2312272e+03   0.000000e+00   0.000000e+00      0s

Solved in 56 iterations and 0.00 seconds
Optimal objective  1.231227190e+03
Gurobi Optimizer version 9.0.3 build v9.0.3rc0 (win64)
Optimize a model with 61 rows, 670 columns and 5675 nonzeros
Coefficient statistics:
  Matrix range     [1e+00, 2e+00]
  Objective range  [6e+01, 2e+02]
  Bounds range     [1e+00, 1e+00]
  RHS range        [1e+00, 1e+01]
Iteration    Objective       Primal Inf.    Dual Inf.      Time
       0    1.1791689e+03   3.157679e+01   0.000000e+00      0s
      41    1.2280453e+03   0.000000e+00   0.000000e+00      0s

Solved in 41 iterations and 0.00 seconds
Optimal objective  1.228045327e+03
Gurobi Optimizer version 9.0.3 build v9.0.3rc0 (win64)
Optimize a model with 61 rows, 694 columns and 5888 nonzeros
Coefficient statistics:
  Matrix range     [1e+00, 2e+00]
  Objective range  [6e+01, 2e+02]
  Bounds range     [1e+00, 1e+00]
  RHS range        [1e+00, 1e+01]
Iteration    Objective       Primal Inf.    Dual Inf.      Time
       0    1.1126047e+03   7.294564e+02   0.000000e+00      0s
      22    1.2265824e+03   0.000000e+00   0.000000e+00      0s

Solved in 22 iterations and 0.00 seconds
Optimal objective  1.226582400e+03
Gurobi Optimizer version 9.0.3 build v9.0.3rc0 (win64)
Optimize a model with 61 rows, 702 columns and 5957 nonzeros
Coefficient statistics:
  Matrix range     [1e+00, 2e+00]
  Objective range  [6e+01, 2e+02]
  Bounds range     [1e+00, 1e+00]
  RHS range        [1e+00, 1e+01]
Iteration    Objective       Primal Inf.    Dual Inf.      Time
       0    1.1779158e+03   3.929575e+01   0.000000e+00      0s
      28    1.2237921e+03   0.000000e+00   0.000000e+00      0s

Solved in 28 iterations and 0.00 seconds
Optimal objective  1.223792055e+03
Gurobi Optimizer version 9.0.3 build v9.0.3rc0 (win64)
Optimize a model with 61 rows, 707 columns and 6003 nonzeros
Coefficient statistics:
  Matrix range     [1e+00, 2e+00]
  Objective range  [6e+01, 2e+02]
  Bounds range     [1e+00, 1e+00]
  RHS range        [1e+00, 1e+01]
Iteration    Objective       Primal Inf.    Dual Inf.      Time
       0    1.1888640e+03   2.446945e+01   0.000000e+00      0s
      24    1.2203890e+03   0.000000e+00   0.000000e+00      0s

Solved in 24 iterations and 0.00 seconds
Optimal objective  1.220388958e+03
Gurobi Optimizer version 9.0.3 build v9.0.3rc0 (win64)
Optimize a model with 61 rows, 712 columns and 6051 nonzeros
Coefficient statistics:
  Matrix range     [1e+00, 2e+00]
  Objective range  [6e+01, 2e+02]
  Bounds range     [1e+00, 1e+00]
  RHS range        [1e+00, 1e+01]
Iteration    Objective       Primal Inf.    Dual Inf.      Time
       0    1.1943259e+03   4.138090e+01   0.000000e+00      0s
      27    1.2155184e+03   0.000000e+00   0.000000e+00      0s

Solved in 27 iterations and 0.00 seconds
Optimal objective  1.215518423e+03
Gurobi Optimizer version 9.0.3 build v9.0.3rc0 (win64)
Optimize a model with 62 rows, 720 columns and 6361 nonzeros
Coefficient statistics:
  Matrix range     [1e+00, 2e+00]
  Objective range  [6e+01, 2e+02]
  Bounds range     [1e+00, 1e+00]
  RHS range        [1e+00, 1e+01]
Iteration    Objective       Primal Inf.    Dual Inf.      Time
       0    1.1644886e+03   7.207471e+01   0.000000e+00      0s
      43    1.2159039e+03   0.000000e+00   0.000000e+00      0s

Solved in 43 iterations and 0.00 seconds
Optimal objective  1.215903913e+03
Gurobi Optimizer version 9.0.3 build v9.0.3rc0 (win64)
Optimize a model with 63 rows, 731 columns and 7187 nonzeros
Coefficient statistics:
  Matrix range     [1e+00, 2e+00]
  Objective range  [6e+01, 2e+02]
  Bounds range     [1e+00, 1e+00]
  RHS range        [1e+00, 1e+01]
Iteration    Objective       Primal Inf.    Dual Inf.      Time
       0    1.1666480e+03   1.432992e+02   0.000000e+00      0s
      46    1.2150250e+03   0.000000e+00   0.000000e+00      0s

Solved in 46 iterations and 0.00 seconds
Optimal objective  1.215025044e+03
Gurobi Optimizer version 9.0.3 build v9.0.3rc0 (win64)
Optimize a model with 64 rows, 739 columns and 8013 nonzeros
Coefficient statistics:
  Matrix range     [1e+00, 2e+00]
  Objective range  [6e+01, 2e+02]
  Bounds range     [1e+00, 1e+00]
  RHS range        [1e+00, 1e+01]
Iteration    Objective       Primal Inf.    Dual Inf.      Time
       0    1.1792811e+03   5.352018e+01   0.000000e+00      0s
      34    1.2140946e+03   0.000000e+00   0.000000e+00      0s

Solved in 34 iterations and 0.00 seconds
Optimal objective  1.214094581e+03
Gurobi Optimizer version 9.0.3 build v9.0.3rc0 (win64)
Optimize a model with 65 rows, 744 columns and 8810 nonzeros
Coefficient statistics:
  Matrix range     [1e+00, 2e+00]
  Objective range  [6e+01, 2e+02]
  Bounds range     [1e+00, 1e+00]
  RHS range        [1e+00, 1e+01]
Iteration    Objective       Primal Inf.    Dual Inf.      Time
       0    1.1866191e+03   3.441691e+01   0.000000e+00      0s
      34    1.2200916e+03   0.000000e+00   0.000000e+00      0s

Solved in 34 iterations and 0.00 seconds
Optimal objective  1.220091629e+03
Gurobi Optimizer version 9.0.3 build v9.0.3rc0 (win64)
Optimize a model with 65 rows, 750 columns and 8881 nonzeros
Coefficient statistics:
  Matrix range     [1e+00, 2e+00]
  Objective range  [6e+01, 2e+02]
  Bounds range     [1e+00, 1e+00]
  RHS range        [1e+00, 1e+01]
Iteration    Objective       Primal Inf.    Dual Inf.      Time
       0    1.1996713e+03   3.195472e+01   0.000000e+00      0s
      21    1.2195991e+03   0.000000e+00   0.000000e+00      0s

Solved in 21 iterations and 0.00 seconds
Optimal objective  1.219599131e+03
Gurobi Optimizer version 9.0.3 build v9.0.3rc0 (win64)
Optimize a model with 66 rows, 758 columns and 9149 nonzeros
Coefficient statistics:
  Matrix range     [1e+00, 2e+00]
  Objective range  [6e+01, 2e+02]
  Bounds range     [1e+00, 1e+00]
  RHS range        [1e+00, 1e+01]
Iteration    Objective       Primal Inf.    Dual Inf.      Time
       0    1.2054907e+03   3.483822e+01   0.000000e+00      0s
      35    1.2344598e+03   0.000000e+00   0.000000e+00      0s

Solved in 35 iterations and 0.00 seconds
Optimal objective  1.234459804e+03
Gurobi Optimizer version 9.0.3 build v9.0.3rc0 (win64)
Optimize a model with 66 rows, 778 columns and 9412 nonzeros
Coefficient statistics:
  Matrix range     [1e+00, 2e+00]
  Objective range  [6e+01, 2e+02]
  Bounds range     [1e+00, 1e+00]
  RHS range        [1e+00, 1e+01]
Iteration    Objective       Primal Inf.    Dual Inf.      Time
       0    1.1366042e+03   1.342386e+02   0.000000e+00      0s
      38    1.2310973e+03   0.000000e+00   0.000000e+00      0s

Solved in 38 iterations and 0.00 seconds
Optimal objective  1.231097333e+03
Gurobi Optimizer version 9.0.3 build v9.0.3rc0 (win64)
Optimize a model with 66 rows, 790 columns and 9565 nonzeros
Coefficient statistics:
  Matrix range     [1e+00, 2e+00]
  Objective range  [6e+01, 2e+02]
  Bounds range     [1e+00, 1e+00]
  RHS range        [1e+00, 1e+01]
Iteration    Objective       Primal Inf.    Dual Inf.      Time
       0    1.1849953e+03   7.052333e+01   0.000000e+00      0s
      27    1.2277144e+03   0.000000e+00   0.000000e+00      0s

Solved in 27 iterations and 0.00 seconds
Optimal objective  1.227714379e+03
Gurobi Optimizer version 9.0.3 build v9.0.3rc0 (win64)
Optimize a model with 66 rows, 797 columns and 9656 nonzeros
Coefficient statistics:
  Matrix range     [1e+00, 2e+00]
  Objective range  [6e+01, 2e+02]
  Bounds range     [1e+00, 1e+00]
  RHS range        [1e+00, 1e+01]
Iteration    Objective       Primal Inf.    Dual Inf.      Time
       0    1.2094766e+03   6.742075e+01   0.000000e+00      0s
      15    1.2257056e+03   0.000000e+00   0.000000e+00      0s

Solved in 15 iterations and 0.00 seconds
Optimal objective  1.225705556e+03
Gurobi Optimizer version 9.0.3 build v9.0.3rc0 (win64)
Optimize a model with 67 rows, 804 columns and 9882 nonzeros
Coefficient statistics:
  Matrix range     [1e+00, 2e+00]
  Objective range  [6e+01, 2e+02]
  Bounds range     [1e+00, 1e+00]
  RHS range        [1e+00, 1e+01]
Iteration    Objective       Primal Inf.    Dual Inf.      Time
       0    1.2062306e+03   1.871875e+01   0.000000e+00      0s
      50    1.2260552e+03   0.000000e+00   0.000000e+00      0s

Solved in 50 iterations and 0.00 seconds
Optimal objective  1.226055238e+03
Gurobi Optimizer version 9.0.3 build v9.0.3rc0 (win64)
Optimize a model with 67 rows, 810 columns and 9962 nonzeros
Coefficient statistics:
  Matrix range     [1e+00, 2e+00]
  Objective range  [6e+01, 2e+02]
  Bounds range     [1e+00, 1e+00]
  RHS range        [1e+00, 1e+01]
Iteration    Objective       Primal Inf.    Dual Inf.      Time
       0    1.2130124e+03   1.166190e+01   0.000000e+00      0s
      14    1.2213050e+03   0.000000e+00   0.000000e+00      0s

Solved in 14 iterations and 0.00 seconds
Optimal objective  1.221305000e+03
Gurobi Optimizer version 9.0.3 build v9.0.3rc0 (win64)
Optimize a model with 67 rows, 817 columns and 10057 nonzeros
Coefficient statistics:
  Matrix range     [1e+00, 2e+00]
  Objective range  [6e+01, 2e+02]
  Bounds range     [1e+00, 1e+00]
  RHS range        [1e+00, 1e+01]
Iteration    Objective       Primal Inf.    Dual Inf.      Time
       0    1.2004950e+03   2.846000e+01   0.000000e+00      0s
      26    1.2193228e+03   0.000000e+00   0.000000e+00      0s

Solved in 26 iterations and 0.00 seconds
Optimal objective  1.219322826e+03
Gurobi Optimizer version 9.0.3 build v9.0.3rc0 (win64)
Optimize a model with 68 rows, 826 columns and 10479 nonzeros
Coefficient statistics:
  Matrix range     [1e+00, 2e+00]
  Objective range  [6e+01, 2e+02]
  Bounds range     [1e+00, 1e+00]
  RHS range        [1e+00, 1e+01]
Iteration    Objective       Primal Inf.    Dual Inf.      Time
       0    1.2034087e+03   6.565217e+01   0.000000e+00      0s
      20    1.2188333e+03   0.000000e+00   0.000000e+00      0s

Solved in 20 iterations and 0.00 seconds
Optimal objective  1.218833333e+03
Gurobi Optimizer version 9.0.3 build v9.0.3rc0 (win64)
Optimize a model with 68 rows, 830 columns and 10530 nonzeros
Coefficient statistics:
  Matrix range     [1e+00, 2e+00]
  Objective range  [6e+01, 2e+02]
  Bounds range     [1e+00, 1e+00]
  RHS range        [1e+00, 1e+01]
Iteration    Objective       Primal Inf.    Dual Inf.      Time
       0    1.2107333e+03   7.055556e+00   0.000000e+00      0s
      21    1.2180152e+03   0.000000e+00   0.000000e+00      0s

Solved in 21 iterations and 0.00 seconds
Optimal objective  1.218015217e+03
Gurobi Optimizer version 9.0.3 build v9.0.3rc0 (win64)
Optimize a model with 68 rows, 836 columns and 10605 nonzeros
Coefficient statistics:
  Matrix range     [1e+00, 2e+00]
  Objective range  [6e+01, 2e+02]
  Bounds range     [1e+00, 1e+00]
  RHS range        [1e+00, 1e+01]
Iteration    Objective       Primal Inf.    Dual Inf.      Time
       0    1.2047370e+03   2.677536e+01   0.000000e+00      0s
      15    1.2170167e+03   0.000000e+00   0.000000e+00      0s

Solved in 15 iterations and 0.00 seconds
Optimal objective  1.217016667e+03
Gurobi Optimizer version 9.0.3 build v9.0.3rc0 (win64)
Optimize a model with 68 rows, 842 columns and 10690 nonzeros
Coefficient statistics:
  Matrix range     [1e+00, 2e+00]
  Objective range  [6e+01, 2e+02]
  Bounds range     [1e+00, 1e+00]
  RHS range        [1e+00, 1e+01]
Iteration    Objective       Primal Inf.    Dual Inf.      Time
       0    1.2090833e+03   3.541667e+01   0.000000e+00      0s
       6    1.2170167e+03   0.000000e+00   0.000000e+00      0s

Solved in 6 iterations and 0.00 seconds
Optimal objective  1.217016667e+03
Gurobi Optimizer version 9.0.3 build v9.0.3rc0 (win64)
Optimize a model with 68 rows, 847 columns and 10758 nonzeros
Coefficient statistics:
  Matrix range     [1e+00, 2e+00]
  Objective range  [6e+01, 2e+02]
  Bounds range     [1e+00, 1e+00]
  RHS range        [1e+00, 1e+01]
Iteration    Objective       Primal Inf.    Dual Inf.      Time
       0    1.2129500e+03   2.816667e+01   0.000000e+00      0s
      14    1.2170167e+03   0.000000e+00   0.000000e+00      0s

Solved in 14 iterations and 0.00 seconds
Optimal objective  1.217016667e+03
Gurobi Optimizer version 9.0.3 build v9.0.3rc0 (win64)
Optimize a model with 68 rows, 852 columns and 10822 nonzeros
Coefficient statistics:
  Matrix range     [1e+00, 2e+00]
  Objective range  [6e+01, 2e+02]
  Bounds range     [1e+00, 1e+00]
  RHS range        [1e+00, 1e+01]
Iteration    Objective       Primal Inf.    Dual Inf.      Time
       0    1.2128167e+03   1.675000e+01   0.000000e+00      0s
       6    1.2170167e+03   0.000000e+00   0.000000e+00      0s

Solved in 6 iterations and 0.00 seconds
Optimal objective  1.217016667e+03
Gurobi Optimizer version 9.0.3 build v9.0.3rc0 (win64)
Optimize a model with 68 rows, 856 columns and 10873 nonzeros
Coefficient statistics:
  Matrix range     [1e+00, 2e+00]
  Objective range  [6e+01, 2e+02]
  Bounds range     [1e+00, 1e+00]
  RHS range        [1e+00, 1e+01]
Iteration    Objective       Primal Inf.    Dual Inf.      Time
       0    1.2157167e+03   2.806250e+01   0.000000e+00      0s
       6    1.2170167e+03   0.000000e+00   0.000000e+00      0s

Solved in 6 iterations and 0.00 seconds
Optimal objective  1.217016667e+03
Gurobi Optimizer version 9.0.3 build v9.0.3rc0 (win64)
Optimize a model with 68 rows, 859 columns and 10910 nonzeros
Coefficient statistics:
  Matrix range     [1e+00, 2e+00]
  Objective range  [6e+01, 2e+02]
  Bounds range     [1e+00, 1e+00]
  RHS range        [1e+00, 1e+01]
Iteration    Objective       Primal Inf.    Dual Inf.      Time
       0    1.2153167e+03   1.650000e+01   0.000000e+00      0s
       2    1.2170167e+03   0.000000e+00   0.000000e+00      0s

Solved in 2 iterations and 0.00 seconds
Optimal objective  1.217016667e+03
Gurobi Optimizer version 9.0.3 build v9.0.3rc0 (win64)
Optimize a model with 68 rows, 863 columns and 10964 nonzeros
Coefficient statistics:
  Matrix range     [1e+00, 2e+00]
  Objective range  [6e+01, 2e+02]
  Bounds range     [1e+00, 1e+00]
  RHS range        [1e+00, 1e+01]
Iteration    Objective       Primal Inf.    Dual Inf.      Time
       0    1.2160167e+03   9.666667e+00   0.000000e+00      0s
       6    1.2170167e+03   0.000000e+00   0.000000e+00      0s

Solved in 6 iterations and 0.00 seconds
Optimal objective  1.217016667e+03
Gurobi Optimizer version 9.0.3 build v9.0.3rc0 (win64)
Optimize a model with 68 rows, 864 columns and 10979 nonzeros
Coefficient statistics:
  Matrix range     [1e+00, 2e+00]
  Objective range  [6e+01, 2e+02]
  Bounds range     [1e+00, 1e+00]
  RHS range        [1e+00, 1e+01]
Iteration    Objective       Primal Inf.    Dual Inf.      Time
       0    1.2169667e+03   4.333333e+00   0.000000e+00      0s
       4    1.2170167e+03   0.000000e+00   0.000000e+00      0s

Solved in 4 iterations and 0.00 seconds
Optimal objective  1.217016667e+03
Gurobi Optimizer version 9.0.3 build v9.0.3rc0 (win64)
Optimize a model with 68 rows, 865 columns and 10992 nonzeros
Coefficient statistics:
  Matrix range     [1e+00, 2e+00]
  Objective range  [6e+01, 2e+02]
  Bounds range     [1e+00, 1e+00]
  RHS range        [1e+00, 1e+01]
Iteration    Objective       Primal Inf.    Dual Inf.      Time
       0    1.2166167e+03   1.666667e+00   0.000000e+00      0s
       1    1.2170167e+03   0.000000e+00   0.000000e+00      0s

Solved in 1 iterations and 0.00 seconds
Optimal objective  1.217016667e+03
Gurobi Optimizer version 9.0.3 build v9.0.3rc0 (win64)
Optimize a model with 68 rows, 867 columns and 11018 nonzeros
Coefficient statistics:
  Matrix range     [1e+00, 2e+00]
  Objective range  [6e+01, 2e+02]
  Bounds range     [1e+00, 1e+00]
  RHS range        [1e+00, 1e+01]
Iteration    Objective       Primal Inf.    Dual Inf.      Time
       0    1.2166167e+03   1.400000e+01   0.000000e+00      0s
       2    1.2170167e+03   0.000000e+00   0.000000e+00      0s

Solved in 2 iterations and 0.00 seconds
Optimal objective  1.217016667e+03
Gurobi Optimizer version 9.0.3 build v9.0.3rc0 (win64)
Optimize a model with 68 rows, 869 columns and 11043 nonzeros
Coefficient statistics:
  Matrix range     [1e+00, 2e+00]
  Objective range  [6e+01, 2e+02]
  Bounds range     [1e+00, 1e+00]
  RHS range        [1e+00, 1e+01]
Iteration    Objective       Primal Inf.    Dual Inf.      Time
       0    1.2166167e+03   7.750000e+00   0.000000e+00      0s
       2    1.2170167e+03   0.000000e+00   0.000000e+00      0s

Solved in 2 iterations and 0.00 seconds
Optimal objective  1.217016667e+03
